\* Source Pyomo model name=unknown *\

min 
x49:
-38.645189584872725 x25
-36.242089359825428 x26
-34.551440733299927 x27
-21.045915617026637 x28
-38.645189584872725 x29
-36.242089359825428 x30
-34.551440733299927 x31
-21.045915617026637 x32
-38.645189584872725 x33
-36.242089359825428 x34
-34.551440733299927 x35
-21.045915617026637 x36
-38.645189584872725 x37
-36.242089359825428 x38
-34.551440733299927 x39
-21.045915617026637 x40
-39.336735297253 x41
-38.444450176487919 x42
-37.552165055722796 x43
-36.659879934957658 x44
-35.767594814192563 x45
-44.875309693427454 x46
-43.983024572662373 x47
-25.090739451897321 x48
+ [
+2 x25 ^ 2
+2 x26 ^ 2
+2 x27 ^ 2
+2 x28 ^ 2
+2 x29 ^ 2
+2 x30 ^ 2
+2 x31 ^ 2
+2 x32 ^ 2
+2 x33 ^ 2
+2 x34 ^ 2
+2 x35 ^ 2
+2 x36 ^ 2
+2 x37 ^ 2
+2 x38 ^ 2
+2 x39 ^ 2
+2 x40 ^ 2
+2 x41 ^ 2
+2 x42 ^ 2
+2 x43 ^ 2
+2 x44 ^ 2
+2 x45 ^ 2
+2 x46 ^ 2
+2 x47 ^ 2
+2 x48 ^ 2
] / 2
+7352.8304166500875 ONE_VAR_CONSTANT

s.t.

c_e_x50_:
+8 x1
+1 x25
= 19.031211589090898

c_e_x51_:
+8 x2
+1 x26
= 17.324552762181813

c_e_x52_:
+1 x27
+8 x3
= 16.31872234578648

c_e_x53_:
+1 x28
+8 x4
= 24.286644543025595

c_e_x54_:
+1 x29
+8 x5
= 19.031211589090898

c_e_x55_:
+1 x30
+8 x6
= 17.324552762181813

c_e_x56_:
+1 x31
+8 x7
= 16.31872234578648

c_e_x57_:
+1 x32
+8 x8
= 24.286644543025595

c_e_x58_:
+1 x33
+8 x9
= 19.031211589090898

c_e_x59_:
+8 x10
+1 x34
= 17.324552762181813

c_e_x60_:
+8 x11
+1 x35
= 16.31872234578648

c_e_x61_:
+8 x12
+1 x36
= 24.286644543025595

c_e_x62_:
+8 x13
+1 x37
= 19.031211589090898

c_e_x63_:
+8 x14
+1 x38
= 17.324552762181813

c_e_x64_:
+8 x15
+1 x39
= 16.31872234578648

c_e_x65_:
+8 x16
+1 x40
= 24.286644543025595

c_e_x66_:
+8 x17
+1 x41
= 19.978306232291626

c_e_x67_:
+8 x18
+1 x42
= 20.065132517264612

c_e_x68_:
+8 x19
+1 x43
= 20.151958802237594

c_e_x69_:
+8 x20
+1 x44
= 20.23878508721058

c_e_x70_:
+8 x21
+1 x45
= 20.325611372183563

c_e_x71_:
+8 x22
+1 x46
= 20.412437657156548

c_e_x72_:
+8 x23
+1 x47
= 20.499263942129531

c_e_x73_:
+8 x24
+1 x48
= 20.586090227102503

c_e_ONE_VAR_CONSTANT: 
ONE_VAR_CONSTANT = 1.0

bounds
   0 <= x1 <= 1
   0 <= x2 <= 1
   0 <= x3 <= 1
   0 <= x4 <= 1
   0 <= x5 <= 1
   0 <= x6 <= 1
   0 <= x7 <= 1
   0 <= x8 <= 1
   0 <= x9 <= 1
   0 <= x10 <= 1
   0 <= x11 <= 1
   0 <= x12 <= 1
   0 <= x13 <= 1
   0 <= x14 <= 1
   0 <= x15 <= 1
   0 <= x16 <= 1
   0 <= x17 <= 1
   0 <= x18 <= 1
   0 <= x19 <= 1
   0 <= x20 <= 1
   0 <= x21 <= 1
   0 <= x22 <= 1
   0 <= x23 <= 1
   0 <= x24 <= 1
    -inf <= x25 <= +inf
    -inf <= x26 <= +inf
    -inf <= x27 <= +inf
    -inf <= x28 <= +inf
    -inf <= x29 <= +inf
    -inf <= x30 <= +inf
    -inf <= x31 <= +inf
    -inf <= x32 <= +inf
    -inf <= x33 <= +inf
    -inf <= x34 <= +inf
    -inf <= x35 <= +inf
    -inf <= x36 <= +inf
    -inf <= x37 <= +inf
    -inf <= x38 <= +inf
    -inf <= x39 <= +inf
    -inf <= x40 <= +inf
    -inf <= x41 <= +inf
    -inf <= x42 <= +inf
    -inf <= x43 <= +inf
    -inf <= x44 <= +inf
    -inf <= x45 <= +inf
    -inf <= x46 <= +inf
    -inf <= x47 <= +inf
    -inf <= x48 <= +inf
binary
  x1
  x2
  x3
  x4
  x5
  x6
  x7
  x8
  x9
  x10
  x11
  x12
  x13
  x14
  x15
  x16
  x17
  x18
  x19
  x20
  x21
  x22
  x23
  x24
end
